13296
1 0 1 0 0 1 1 0 0 0 0 1 0 0 1 0 0 1 0 0 1 1 0 0 0 0 0 0 0 0 
20 11 20 14 20 5 2 5 14 17 21 20 20 20 0 14 14 17 11 11 14 0 21 2 21 20 2 5 11 11 21 11 6 11 20 20 5 11 0 14 0 14 5 14 5 14 0 20 11 14 21 14 14 5 20 20 17 0 0 14 0 5 20 11 11 11 11 0 21 21 20 6 11 17 5 20 21 20 14 11 20 0 20 17 2 17 17 0 20 11 2 5 17 11 0 11 2 2 21 20 20 0 17 11 2 11 0 11 14 14 14 14 2 11 11 21 5 5 5 5 5 20 11 20 20 0 11 21 0 0 0 0 5 0 14 14 0 11 20 17 0 20 20 14 20 11 11 5 2 5 
